3732510
98,17,41,42,179,99,91,65,201,139,116,115,47,141,169,108,120,162,88,33,106,107,178,100,153,64,2,151,205,113,109,213,13,210,224,193,194,22,172,112,97,121,208,1,92,45,46,110,10,57,103,25,39,49,119,173,187,167,203,58,28,192,9,225,54,223,229,140,189,190,85,15,158,68,176,19,67,60,81,51,145,186,185,102,89,216,3,12,155,129,128,207,184,126,134,111,35,132,168,154,101,86,204,182,177,146,38,82,165,74,31,30,117,156,198,56,138,84,79,163,73,161,143,144,96,50,215,0,150,70,21,29,175,5,170,127,55,227,63,14,62,66,48,206,72,69,75,226,137,4,191,77,164,212,211,11,149,130,78,166,148,24,171,123,122,181,142,94,217,125,180,221,23,174,124,133,222,43,83,147,157,202,32,152,16,95,80,214,36,27,26,34,183,160,61,71,6,209,8,20,37,90,87,114,76,40,105,104,218,53,52,93,228,195,136,219,196,197,7,59,188,159,199,200,18,131,220,135,118,44
